c THIS FORMULA IS GENERATED BY CNF
c 
c atomics
c X_PI <= 54.92_5_s:1
c X_PI <= 48.12_4_p:2
c X_PI <= 54.92_2_n:3
c C_7_1:4
c X_PI <= 48.12_6_n:5
c C_8_1:6
c X_PI <= 48.12_5_p:7
c X_PI <= 54.92_2_s:8
c C_1_1:9
c X_PI <= 48.12_8_n:10
c C_5_1:11
c X_PI <= 54.92_3_s:12
c X_PI <= 54.92_6_p:13
c C_4_1:14
c X_PI <= 48.12_7_n:15
c X_PI <= 54.92_2_p:16
c X_PI <= 42.09_8_s:17
c X_PI <= 42.09_3_s:18
c X_PI <= 42.09_7_s:19
c X_PI <= 42.09_4_s:20
c X_PI <= 42.09_5_s:21
c X_PI <= 48.12_3_s:22
c X_PI <= 48.12_7_p:23
c X_PI <= 54.92_4_p:24
c X_PI <= 48.12_8_p:25
c X_PI <= 42.09_1_p:26
c X_PI <= 42.09_6_n:27
c X_PI <= 48.12_5_s:28
c X_PI <= 54.92_8_n:29
c X_PI <= 54.92_5_p:30
c X_PI <= 48.12_1_s:31
c X_PI <= 54.92_7_n:32
c X_PI <= 42.09_4_p:33
c X_PI <= 42.09_3_n:34
c X_PI <= 42.09_2_p:35
c X_PI <= 54.92_1_n:36
c X_PI <= 42.09_4_n:37
c X_PI <= 48.12_4_n:38
c X_PI <= 48.12_6_p:39
c X_PI <= 54.92_6_n:40
c X_PI <= 48.12_2_s:41
c X_PI <= 48.12_2_p:42
c X_PI <= 42.09_6_p:43
c X_PI <= 42.09_2_n:44
c C_6_1:45
c X_PI <= 54.92_8_p:46
c X_PI <= 48.12_2_n:47
c X_PI <= 42.09_7_p:48
c X_PI <= 48.12_4_s:49
c X_PI <= 54.92_4_n:50
c X_PI <= 42.09_1_n:51
c X_PI <= 48.12_3_n:52
c X_PI <= 42.09_8_n:53
c X_PI <= 54.92_4_s:54
c X_PI <= 42.09_3_p:55
c X_PI <= 54.92_6_s:56
c X_PI <= 42.09_1_s:57
c X_PI <= 42.09_5_n:58
c X_PI <= 54.92_7_p:59
c X_PI <= 48.12_8_s:60
c C_2_1:61
c X_PI <= 54.92_3_n:62
c X_PI <= 54.92_7_s:63
c X_PI <= 48.12_3_p:64
c X_PI <= 42.09_5_p:65
c X_PI <= 42.09_7_n:66
c X_PI <= 42.09_8_p:67
c X_PI <= 54.92_1_s:68
c X_PI <= 48.12_7_s:69
c X_PI <= 54.92_5_n:70
c X_PI <= 48.12_6_s:71
c X_PI <= 48.12_1_p:72
c X_PI <= 42.09_6_s:73
c X_PI <= 54.92_3_p:74
c X_PI <= 54.92_1_p:75
c X_PI <= 48.12_5_n:76
c X_PI <= 48.12_1_n:77
c X_PI <= 54.92_8_s:78
c C_3_1:79
c X_PI <= 42.09_2_s:80
c end atomics
p cnf 80 688
26 -26 -26 0
26 -26 -51 0
26 -26 57 0
26 51 -26 0
26 51 -51 0
26 51 57 0
26 -57 -26 0
26 -57 -51 0
26 -57 57 0
-51 -26 -26 0
-51 -26 -51 0
-51 -26 57 0
-51 51 -26 0
-51 51 -51 0
-51 51 57 0
-51 -57 -26 0
-51 -57 -51 0
-51 -57 57 0
-57 -26 -26 0
-57 -26 -51 0
-57 -26 57 0
-57 51 -26 0
-57 51 -51 0
-57 51 57 0
-57 -57 -26 0
-57 -57 -51 0
-57 -57 57 0
72 -72 -72 0
72 -72 -77 0
72 -72 31 0
72 77 -72 0
72 77 -77 0
72 77 31 0
72 -31 -72 0
72 -31 -77 0
72 -31 31 0
-77 -72 -72 0
-77 -72 -77 0
-77 -72 31 0
-77 77 -72 0
-77 77 -77 0
-77 77 31 0
-77 -31 -72 0
-77 -31 -77 0
-77 -31 31 0
-31 -72 -72 0
-31 -72 -77 0
-31 -72 31 0
-31 77 -72 0
-31 77 -77 0
-31 77 31 0
-31 -31 -72 0
-31 -31 -77 0
-31 -31 31 0
75 -75 -75 0
75 -75 -36 0
75 -75 68 0
75 36 -75 0
75 36 -36 0
75 36 68 0
75 -68 -75 0
75 -68 -36 0
75 -68 68 0
-36 -75 -75 0
-36 -75 -36 0
-36 -75 68 0
-36 36 -75 0
-36 36 -36 0
-36 36 68 0
-36 -68 -75 0
-36 -68 -36 0
-36 -68 68 0
-68 -75 -75 0
-68 -75 -36 0
-68 -75 68 0
-68 36 -75 0
-68 36 -36 0
-68 36 68 0
-68 -68 -75 0
-68 -68 -36 0
-68 -68 68 0
35 -35 -35 0
35 -35 -44 0
35 -35 80 0
35 44 -35 0
35 44 -44 0
35 44 80 0
35 -80 -35 0
35 -80 -44 0
35 -80 80 0
-44 -35 -35 0
-44 -35 -44 0
-44 -35 80 0
-44 44 -35 0
-44 44 -44 0
-44 44 80 0
-44 -80 -35 0
-44 -80 -44 0
-44 -80 80 0
-80 -35 -35 0
-80 -35 -44 0
-80 -35 80 0
-80 44 -35 0
-80 44 -44 0
-80 44 80 0
-80 -80 -35 0
-80 -80 -44 0
-80 -80 80 0
42 -42 -42 0
42 -42 -47 0
42 -42 41 0
42 47 -42 0
42 47 -47 0
42 47 41 0
42 -41 -42 0
42 -41 -47 0
42 -41 41 0
-47 -42 -42 0
-47 -42 -47 0
-47 -42 41 0
-47 47 -42 0
-47 47 -47 0
-47 47 41 0
-47 -41 -42 0
-47 -41 -47 0
-47 -41 41 0
-41 -42 -42 0
-41 -42 -47 0
-41 -42 41 0
-41 47 -42 0
-41 47 -47 0
-41 47 41 0
-41 -41 -42 0
-41 -41 -47 0
-41 -41 41 0
16 -16 -16 0
16 -16 -3 0
16 -16 8 0
16 3 -16 0
16 3 -3 0
16 3 8 0
16 -8 -16 0
16 -8 -3 0
16 -8 8 0
-3 -16 -16 0
-3 -16 -3 0
-3 -16 8 0
-3 3 -16 0
-3 3 -3 0
-3 3 8 0
-3 -8 -16 0
-3 -8 -3 0
-3 -8 8 0
-8 -16 -16 0
-8 -16 -3 0
-8 -16 8 0
-8 3 -16 0
-8 3 -3 0
-8 3 8 0
-8 -8 -16 0
-8 -8 -3 0
-8 -8 8 0
55 -55 -55 0
55 -55 -34 0
55 -55 18 0
55 34 -55 0
55 34 -34 0
55 34 18 0
55 -18 -55 0
55 -18 -34 0
55 -18 18 0
-34 -55 -55 0
-34 -55 -34 0
-34 -55 18 0
-34 34 -55 0
-34 34 -34 0
-34 34 18 0
-34 -18 -55 0
-34 -18 -34 0
-34 -18 18 0
-18 -55 -55 0
-18 -55 -34 0
-18 -55 18 0
-18 34 -55 0
-18 34 -34 0
-18 34 18 0
-18 -18 -55 0
-18 -18 -34 0
-18 -18 18 0
64 -64 -64 0
64 -64 -52 0
64 -64 22 0
64 52 -64 0
64 52 -52 0
64 52 22 0
64 -22 -64 0
64 -22 -52 0
64 -22 22 0
-52 -64 -64 0
-52 -64 -52 0
-52 -64 22 0
-52 52 -64 0
-52 52 -52 0
-52 52 22 0
-52 -22 -64 0
-52 -22 -52 0
-52 -22 22 0
-22 -64 -64 0
-22 -64 -52 0
-22 -64 22 0
-22 52 -64 0
-22 52 -52 0
-22 52 22 0
-22 -22 -64 0
-22 -22 -52 0
-22 -22 22 0
74 -74 -74 0
74 -74 -62 0
74 -74 12 0
74 62 -74 0
74 62 -62 0
74 62 12 0
74 -12 -74 0
74 -12 -62 0
74 -12 12 0
-62 -74 -74 0
-62 -74 -62 0
-62 -74 12 0
-62 62 -74 0
-62 62 -62 0
-62 62 12 0
-62 -12 -74 0
-62 -12 -62 0
-62 -12 12 0
-12 -74 -74 0
-12 -74 -62 0
-12 -74 12 0
-12 62 -74 0
-12 62 -62 0
-12 62 12 0
-12 -12 -74 0
-12 -12 -62 0
-12 -12 12 0
33 -33 -33 0
33 -33 -37 0
33 -33 20 0
33 37 -33 0
33 37 -37 0
33 37 20 0
33 -20 -33 0
33 -20 -37 0
33 -20 20 0
-37 -33 -33 0
-37 -33 -37 0
-37 -33 20 0
-37 37 -33 0
-37 37 -37 0
-37 37 20 0
-37 -20 -33 0
-37 -20 -37 0
-37 -20 20 0
-20 -33 -33 0
-20 -33 -37 0
-20 -33 20 0
-20 37 -33 0
-20 37 -37 0
-20 37 20 0
-20 -20 -33 0
-20 -20 -37 0
-20 -20 20 0
2 -2 -2 0
2 -2 -38 0
2 -2 49 0
2 38 -2 0
2 38 -38 0
2 38 49 0
2 -49 -2 0
2 -49 -38 0
2 -49 49 0
-38 -2 -2 0
-38 -2 -38 0
-38 -2 49 0
-38 38 -2 0
-38 38 -38 0
-38 38 49 0
-38 -49 -2 0
-38 -49 -38 0
-38 -49 49 0
-49 -2 -2 0
-49 -2 -38 0
-49 -2 49 0
-49 38 -2 0
-49 38 -38 0
-49 38 49 0
-49 -49 -2 0
-49 -49 -38 0
-49 -49 49 0
24 -24 -24 0
24 -24 -50 0
24 -24 54 0
24 50 -24 0
24 50 -50 0
24 50 54 0
24 -54 -24 0
24 -54 -50 0
24 -54 54 0
-50 -24 -24 0
-50 -24 -50 0
-50 -24 54 0
-50 50 -24 0
-50 50 -50 0
-50 50 54 0
-50 -54 -24 0
-50 -54 -50 0
-50 -54 54 0
-54 -24 -24 0
-54 -24 -50 0
-54 -24 54 0
-54 50 -24 0
-54 50 -50 0
-54 50 54 0
-54 -54 -24 0
-54 -54 -50 0
-54 -54 54 0
65 -65 -65 0
65 -65 -58 0
65 -65 21 0
65 58 -65 0
65 58 -58 0
65 58 21 0
65 -21 -65 0
65 -21 -58 0
65 -21 21 0
-58 -65 -65 0
-58 -65 -58 0
-58 -65 21 0
-58 58 -65 0
-58 58 -58 0
-58 58 21 0
-58 -21 -65 0
-58 -21 -58 0
-58 -21 21 0
-21 -65 -65 0
-21 -65 -58 0
-21 -65 21 0
-21 58 -65 0
-21 58 -58 0
-21 58 21 0
-21 -21 -65 0
-21 -21 -58 0
-21 -21 21 0
7 -7 -7 0
7 -7 -76 0
7 -7 28 0
7 76 -7 0
7 76 -76 0
7 76 28 0
7 -28 -7 0
7 -28 -76 0
7 -28 28 0
-76 -7 -7 0
-76 -7 -76 0
-76 -7 28 0
-76 76 -7 0
-76 76 -76 0
-76 76 28 0
-76 -28 -7 0
-76 -28 -76 0
-76 -28 28 0
-28 -7 -7 0
-28 -7 -76 0
-28 -7 28 0
-28 76 -7 0
-28 76 -76 0
-28 76 28 0
-28 -28 -7 0
-28 -28 -76 0
-28 -28 28 0
30 -30 -30 0
30 -30 -70 0
30 -30 1 0
30 70 -30 0
30 70 -70 0
30 70 1 0
30 -1 -30 0
30 -1 -70 0
30 -1 1 0
-70 -30 -30 0
-70 -30 -70 0
-70 -30 1 0
-70 70 -30 0
-70 70 -70 0
-70 70 1 0
-70 -1 -30 0
-70 -1 -70 0
-70 -1 1 0
-1 -30 -30 0
-1 -30 -70 0
-1 -30 1 0
-1 70 -30 0
-1 70 -70 0
-1 70 1 0
-1 -1 -30 0
-1 -1 -70 0
-1 -1 1 0
43 -43 -43 0
43 -43 -27 0
43 -43 73 0
43 27 -43 0
43 27 -27 0
43 27 73 0
43 -73 -43 0
43 -73 -27 0
43 -73 73 0
-27 -43 -43 0
-27 -43 -27 0
-27 -43 73 0
-27 27 -43 0
-27 27 -27 0
-27 27 73 0
-27 -73 -43 0
-27 -73 -27 0
-27 -73 73 0
-73 -43 -43 0
-73 -43 -27 0
-73 -43 73 0
-73 27 -43 0
-73 27 -27 0
-73 27 73 0
-73 -73 -43 0
-73 -73 -27 0
-73 -73 73 0
39 -39 -39 0
39 -39 -5 0
39 -39 71 0
39 5 -39 0
39 5 -5 0
39 5 71 0
39 -71 -39 0
39 -71 -5 0
39 -71 71 0
-5 -39 -39 0
-5 -39 -5 0
-5 -39 71 0
-5 5 -39 0
-5 5 -5 0
-5 5 71 0
-5 -71 -39 0
-5 -71 -5 0
-5 -71 71 0
-71 -39 -39 0
-71 -39 -5 0
-71 -39 71 0
-71 5 -39 0
-71 5 -5 0
-71 5 71 0
-71 -71 -39 0
-71 -71 -5 0
-71 -71 71 0
13 -13 -13 0
13 -13 -40 0
13 -13 56 0
13 40 -13 0
13 40 -40 0
13 40 56 0
13 -56 -13 0
13 -56 -40 0
13 -56 56 0
-40 -13 -13 0
-40 -13 -40 0
-40 -13 56 0
-40 40 -13 0
-40 40 -40 0
-40 40 56 0
-40 -56 -13 0
-40 -56 -40 0
-40 -56 56 0
-56 -13 -13 0
-56 -13 -40 0
-56 -13 56 0
-56 40 -13 0
-56 40 -40 0
-56 40 56 0
-56 -56 -13 0
-56 -56 -40 0
-56 -56 56 0
48 -48 -48 0
48 -48 -66 0
48 -48 19 0
48 66 -48 0
48 66 -66 0
48 66 19 0
48 -19 -48 0
48 -19 -66 0
48 -19 19 0
-66 -48 -48 0
-66 -48 -66 0
-66 -48 19 0
-66 66 -48 0
-66 66 -66 0
-66 66 19 0
-66 -19 -48 0
-66 -19 -66 0
-66 -19 19 0
-19 -48 -48 0
-19 -48 -66 0
-19 -48 19 0
-19 66 -48 0
-19 66 -66 0
-19 66 19 0
-19 -19 -48 0
-19 -19 -66 0
-19 -19 19 0
23 -23 -23 0
23 -23 -15 0
23 -23 69 0
23 15 -23 0
23 15 -15 0
23 15 69 0
23 -69 -23 0
23 -69 -15 0
23 -69 69 0
-15 -23 -23 0
-15 -23 -15 0
-15 -23 69 0
-15 15 -23 0
-15 15 -15 0
-15 15 69 0
-15 -69 -23 0
-15 -69 -15 0
-15 -69 69 0
-69 -23 -23 0
-69 -23 -15 0
-69 -23 69 0
-69 15 -23 0
-69 15 -15 0
-69 15 69 0
-69 -69 -23 0
-69 -69 -15 0
-69 -69 69 0
59 -59 -59 0
59 -59 -32 0
59 -59 63 0
59 32 -59 0
59 32 -32 0
59 32 63 0
59 -63 -59 0
59 -63 -32 0
59 -63 63 0
-32 -59 -59 0
-32 -59 -32 0
-32 -59 63 0
-32 32 -59 0
-32 32 -32 0
-32 32 63 0
-32 -63 -59 0
-32 -63 -32 0
-32 -63 63 0
-63 -59 -59 0
-63 -59 -32 0
-63 -59 63 0
-63 32 -59 0
-63 32 -32 0
-63 32 63 0
-63 -63 -59 0
-63 -63 -32 0
-63 -63 63 0
67 -67 -67 0
67 -67 -53 0
67 -67 17 0
67 53 -67 0
67 53 -53 0
67 53 17 0
67 -17 -67 0
67 -17 -53 0
67 -17 17 0
-53 -67 -67 0
-53 -67 -53 0
-53 -67 17 0
-53 53 -67 0
-53 53 -53 0
-53 53 17 0
-53 -17 -67 0
-53 -17 -53 0
-53 -17 17 0
-17 -67 -67 0
-17 -67 -53 0
-17 -67 17 0
-17 53 -67 0
-17 53 -53 0
-17 53 17 0
-17 -17 -67 0
-17 -17 -53 0
-17 -17 17 0
25 -25 -25 0
25 -25 -10 0
25 -25 60 0
25 10 -25 0
25 10 -10 0
25 10 60 0
25 -60 -25 0
25 -60 -10 0
25 -60 60 0
-10 -25 -25 0
-10 -25 -10 0
-10 -25 60 0
-10 10 -25 0
-10 10 -10 0
-10 10 60 0
-10 -60 -25 0
-10 -60 -10 0
-10 -60 60 0
-60 -25 -25 0
-60 -25 -10 0
-60 -25 60 0
-60 10 -25 0
-60 10 -10 0
-60 10 60 0
-60 -60 -25 0
-60 -60 -10 0
-60 -60 60 0
46 -46 -46 0
46 -46 -29 0
46 -46 78 0
46 29 -46 0
46 29 -29 0
46 29 78 0
46 -78 -46 0
46 -78 -29 0
46 -78 78 0
-29 -46 -46 0
-29 -46 -29 0
-29 -46 78 0
-29 29 -46 0
-29 29 -29 0
-29 29 78 0
-29 -78 -46 0
-29 -78 -29 0
-29 -78 78 0
-78 -46 -46 0
-78 -46 -29 0
-78 -46 78 0
-78 29 -46 0
-78 29 -29 0
-78 29 78 0
-78 -78 -46 0
-78 -78 -29 0
-78 -78 78 0
-57 -31 -68 0
-80 -41 -8 0
-18 -22 -12 0
-20 -49 -54 0
-21 -28 -1 0
-73 -71 -56 0
-19 -69 -63 0
-17 -60 -78 0
51 77 36 0
44 47 3 0
34 52 62 0
37 38 50 0
58 76 70 0
27 5 40 0
66 15 32 0
53 10 29 0
-26 -9 0
-72 -9 0
-75 -9 0
-35 -61 0
-42 -61 0
-16 -61 0
-55 -79 0
-64 -79 0
-74 -79 0
-33 -14 0
-2 -14 0
-24 -14 0
-65 -11 0
-7 -11 0
-30 -11 0
-43 -45 0
-39 -45 0
-13 -45 0
-48 -4 0
-23 -4 0
-59 -4 0
-67 -6 0
-25 -6 0
-46 -6 0
9 61 79 14 11 45 4 6 0
